
List of user-set options:

                                    Name   Value                used
                           compl_inf_tol = 1                     yes
                         constr_viol_tol = 1                     yes
                            dual_inf_tol = 1000                  yes
                           linear_solver = ma97                  yes
                              ma86_small = 1e-30                  no
                                  ma86_u = 0.0001                 no
                              ma97_order = best                  yes
                              ma97_small = 1e-30                 yes
                            ma97_switch1 = at_start              yes
                            ma97_switch2 = od_hd_reuse           yes
                                  ma97_u = 1e-06                 yes
                               ma97_umax = 0.5                   yes
                                max_iter = 1000                  yes
                    max_refinement_steps = 20                    yes
                    min_refinement_steps = 5                     yes
                                 mu_init = 1e-06                 yes
           mu_superlinear_decrease_power = 1.25                  yes
                   nlp_scaling_min_value = 1e-08                 yes
                        option_file_name = Preset_Case_125_pf.opt  yes
                             output_file = ./tmp/Preset_Case_125_pf.output  yes
                      print_user_options = yes                   yes
        required_infeasibility_reduction = 1                      no
                                     tol = 1e-08                 yes
                   warm_start_bound_frac = 1e-20                 yes
                   warm_start_bound_push = 1e-20                 yes
                   warm_start_init_point = yes                   yes
              warm_start_mult_bound_push = 1e-20                 yes
                warm_start_mult_init_max = 1e+40                 yes
             warm_start_slack_bound_frac = 1e-20                 yes
             warm_start_slack_bound_push = 1e-20                 yes

******************************************************************************
This program contains Ipopt, a library for large-scale nonlinear optimization.
 Ipopt is released as open source code under the Eclipse Public License (EPL).
         For more information visit http://projects.coin-or.org/Ipopt
******************************************************************************

This is Ipopt version 3.12.10, running with linear solver ma97.

Number of nonzeros in equality constraint Jacobian...:   123442
Number of nonzeros in inequality constraint Jacobian.:      213
Number of nonzeros in Lagrangian Hessian.............:    49069

Total number of variables............................:    31591
                     variables with only lower bounds:    12912
                variables with lower and upper bounds:    15130
                     variables with only upper bounds:        0
Total number of equality constraints.................:    31483
Total number of inequality constraints...............:       25
        inequality constraints with only lower bounds:        4
   inequality constraints with lower and upper bounds:        0
        inequality constraints with only upper bounds:       21

iter    objective    inf_pr   inf_du lg(mu)  ||d||  lg(rg) alpha_du alpha_pr  ls
   0 -5.1100224e+00 4.07e-03 1.02e+00  -6.0 0.00e+00    -  0.00e+00 0.00e+00   0
   1 -5.1210538e+00 8.86e+00 4.86e+01  -6.0 6.80e+05    -  4.59e-05 6.75e-04h  1
   2 -5.1210070e+00 8.86e+00 4.86e+01  -6.0 9.74e+02    -  1.12e-04 3.53e-05h  1
   3 -5.1136193e+00 8.82e+00 3.58e+02  -6.0 4.06e+03    -  1.13e-04 3.49e-03h  1
   4 -5.1109301e+00 8.81e+00 3.63e+02  -6.0 1.10e+03    -  1.98e-01 2.03e-03h  1
   5 -5.1097999e+00 8.80e+00 3.62e+02  -6.0 9.21e+02    -  2.39e-03 8.15e-04h  7
   6 -5.1094207e+00 8.80e+00 3.62e+02  -6.0 1.04e+03    -  8.69e-03 2.89e-04h 11
   7 -5.1093238e+00 8.80e+00 3.62e+02  -6.0 1.03e+03    -  4.85e-03 7.41e-05h 13
   8 -5.1092740e+00 8.80e+00 3.66e+02  -6.0 1.03e+03    -  4.13e-02 3.80e-05h 14
   9 -5.1092601e+00 8.80e+00 3.66e+02  -6.0 1.01e+03    -  3.62e-03 1.06e-05h 16
iter    objective    inf_pr   inf_du lg(mu)  ||d||  lg(rg) alpha_du alpha_pr  ls
  10 -5.0880307e+00 8.63e+00 1.71e+03  -6.0 1.01e+03    -  1.80e-02 1.93e-02H  1
  11 -5.0873560e+00 8.62e+00 1.71e+03  -6.0 9.98e+02    -  3.25e-06 5.53e-04h  1
  12 -5.0865618e+00 8.61e+00 1.78e+03  -6.0 9.94e+02    -  2.74e-02 7.88e-04H  1
  13 -5.0865593e+00 8.61e+00 1.78e+03  -6.0 9.89e+02    -  2.19e-06 2.11e-06h  2
  14 -4.8409832e+00 6.89e+00 3.54e+05  -6.0 9.83e+02    -  6.38e-06 2.01e-01h  2
  15r-4.8409832e+00 6.89e+00 9.99e+02   0.8 0.00e+00   2.0 0.00e+00 3.35e-07R  2
  16r-4.8418971e+00 6.89e+00 9.99e+02   0.8 7.33e+04    -  3.07e-07 4.23e-08f  1
  17 -4.8492954e+00 6.88e+00 2.66e+02  -6.0 2.33e+05    -  3.78e-05 1.25e-03h  1
  18 -4.8543453e+00 6.84e+00 1.66e+03  -6.0 1.58e+05    -  9.60e-05 5.05e-03h  3
  19 -4.8562988e+00 6.83e+00 2.13e+03  -6.0 7.84e+04    -  1.55e-02 2.44e-03h  3
iter    objective    inf_pr   inf_du lg(mu)  ||d||  lg(rg) alpha_du alpha_pr  ls
  20 -4.8680115e+00 6.81e+00 4.98e+03  -6.0 7.08e+04    -  3.07e-03 2.86e-03h  3
  21 -4.8732262e+00 6.80e+00 5.16e+03  -6.0 5.67e+04    -  4.54e-03 9.63e-04h  4
  22 -4.8773611e+00 6.80e+00 5.18e+03  -6.0 5.21e+04    -  6.54e-03 7.76e-04h  4
  23 -4.9085781e+00 6.76e+00 6.98e+03  -6.0 4.79e+04    -  1.01e-02 6.20e-03h  1
  24 -4.9606136e+00 6.62e+00 2.01e+04  -6.0 1.87e+04    -  1.96e-02 2.44e-02h  1
  25 -4.9587420e+00 6.54e+00 2.01e+04  -6.0 3.39e+03    -  1.20e-01 1.17e-02h  1
  26 -4.9540232e+00 6.38e+00 2.03e+04  -6.0 2.72e+03    -  2.98e-01 2.46e-02h  3
  27 -4.9443082e+00 6.05e+00 2.06e+04  -6.0 2.40e+03    -  1.90e-01 5.21e-02h  2
  28 -4.9313178e+00 5.41e+00 1.74e+04  -6.0 1.78e+03    -  2.68e-01 1.05e-01h  1
  29 -4.9364701e+00 4.66e+00 1.51e+05  -6.0 1.02e+03    -  4.80e-01 4.79e-01h  1
iter    objective    inf_pr   inf_du lg(mu)  ||d||  lg(rg) alpha_du alpha_pr  ls
  30 -5.0108189e+00 3.84e+00 1.23e+05  -6.0 6.52e+02    -  5.31e-02 2.03e-01h  1
  31 -5.0799090e+00 3.11e+00 1.75e+05  -6.0 3.68e+02    -  4.77e-02 1.94e-01h  1
  32 -5.2214936e+00 1.67e+00 6.36e+04  -6.0 1.97e+02    -  2.67e-04 4.68e-01h  1
  33 -5.2267878e+00 1.62e+00 1.81e+07  -6.0 1.39e+03    -  1.43e-01 3.15e-02h  1
  34 -5.2268146e+00 1.62e+00 1.81e+07  -6.0 2.28e+00   1.5 5.66e-05 1.50e-04h  1
  35 -5.2268304e+00 1.62e+00 1.81e+07  -6.0 2.36e+00   1.0 1.78e-04 9.69e-05h  1
  36 -5.2268311e+00 1.62e+00 1.81e+07  -6.0 4.27e+00   0.6 9.20e-04 4.04e-06h  2
  37 -5.2271459e+00 1.62e+00 1.81e+07  -6.0 3.33e+00   0.1 1.70e-03 2.91e-03h  1
  38 -5.2276249e+00 1.61e+00 1.80e+07  -6.0 2.67e+00  -0.4 1.78e-03 5.40e-03h  1
  39 -5.2283182e+00 1.60e+00 1.79e+07  -6.0 3.17e+00  -0.9 9.17e-03 6.99e-03h  1
iter    objective    inf_pr   inf_du lg(mu)  ||d||  lg(rg) alpha_du alpha_pr  ls
  40 -5.2316168e+00 1.55e+00 1.72e+07  -6.0 3.25e+00  -1.3 2.00e-02 3.15e-02h  1
  41 -5.2475218e+00 1.33e+00 1.32e+07  -6.0 3.35e+00  -1.8 4.06e-02 1.42e-01h  1
  42 -5.2563025e+00 1.24e+00 1.22e+07  -6.0 3.56e+00  -2.3 1.35e-01 6.51e-02h  1
  43 -5.2673453e+00 1.17e+00 1.16e+07  -6.0 4.16e+00  -2.8 1.01e-01 5.53e-02h  1
  44 -5.2723524e+00 1.16e+00 1.15e+07  -6.0 1.26e+01  -3.2 9.06e-02 1.29e-02h  1
  45 -5.2913579e+00 9.58e-01 1.00e+07  -6.0 3.24e+00  -2.8 2.69e-01 1.73e-01h  1
  46 -5.3120769e+00 7.44e-01 8.38e+06  -6.0 3.63e+00  -3.3 6.15e-01 2.23e-01h  1
  47 -5.3199232e+00 6.63e-01 7.47e+06  -6.0 6.11e+00  -3.8 8.01e-01 1.09e-01h  1
  48 -5.3807458e+00 3.71e-03 5.69e+06  -6.0 1.87e+00  -3.4 1.00e+00 1.00e+00h  1
  49 -5.3819377e+00 7.02e-03 5.64e+06  -6.0 1.21e+03    -  3.47e-02 9.65e-03h  1
iter    objective    inf_pr   inf_du lg(mu)  ||d||  lg(rg) alpha_du alpha_pr  ls
  50 -5.3814426e+00 5.14e-03 4.13e+06  -6.0 1.16e+00  -3.8 5.11e-01 2.71e-01h  1
  51 -5.3924331e+00 7.60e+00 5.02e+06  -6.0 2.25e+03    -  8.89e-03 2.87e-01h  1
  52 -5.4027229e+00 6.42e+00 4.27e+06  -6.0 7.99e+02    -  1.70e-01 2.61e-01h  1
  53 -5.4118414e+00 5.34e+00 3.55e+06  -6.0 8.57e+02    -  4.69e-04 1.84e-01h  1
  54 -5.4222851e+00 6.72e+00 2.76e+06  -6.0 2.03e+03    -  4.54e-02 2.27e-01h  1
  55 -5.4306784e+00 6.36e+00 2.62e+06  -6.0 2.48e+03    -  1.36e-01 5.43e-02h  1
  56 -5.4491729e+00 5.13e+00 2.10e+06  -6.0 2.84e+03    -  1.96e-01 1.93e-01h  1
  57 -5.4549366e+00 4.77e+00 1.95e+06  -6.0 2.56e+03    -  4.75e-01 7.10e-02h  1
  58 -5.4745578e+00 3.64e+00 1.46e+06  -6.0 2.51e+03    -  2.69e-01 2.41e-01h  1
  59 -5.4871661e+00 5.67e+00 1.03e+06  -6.0 2.06e+03    -  1.91e-01 2.89e-01h  1
iter    objective    inf_pr   inf_du lg(mu)  ||d||  lg(rg) alpha_du alpha_pr  ls
  60 -5.4919903e+00 6.38e+00 8.55e+05  -6.0 1.87e+03    -  5.43e-01 1.71e-01h  1
  61 -5.4986744e+00 1.13e+01 5.69e+05  -6.0 1.97e+03    -  2.48e-01 3.31e-01h  1
  62 -5.5076519e+00 2.70e+01 1.83e+05  -6.0 1.73e+03    -  8.33e-02 6.73e-01h  1
  63 -5.5088070e+00 2.30e+01 1.48e+05  -6.0 1.52e+03    -  1.35e-01 1.90e-01h  1
  64 -5.5102929e+00 1.93e+01 1.23e+05  -6.0 6.05e+02    -  3.16e-01 1.67e-01h  1
  65 -5.5174819e+00 7.49e+00 1.25e+04  -6.0 6.02e+02    -  9.43e-02 1.00e+00h  1
  66 -5.5178828e+00 7.24e+00 9.00e+03  -6.0 2.42e+02    -  3.83e-01 3.32e-02h  1
  67 -5.5291732e+00 4.71e-01 2.14e+02  -6.0 1.58e+02    -  1.00e+00 1.00e+00h  1
  68 -5.5321058e+00 3.76e-01 4.74e+04  -6.0 1.43e+02    -  5.27e-01 2.08e-01h  1
  69 -5.5449238e+00 6.88e-01 2.89e+04  -6.0 1.45e+02    -  1.00e+00 8.59e-01h  1
iter    objective    inf_pr   inf_du lg(mu)  ||d||  lg(rg) alpha_du alpha_pr  ls
  70 -5.5512355e+00 2.75e-01 1.02e+05  -6.0 2.42e+02    -  3.09e-01 2.34e-01h  1
  71 -5.5593634e+00 3.34e-01 1.25e+06  -6.0 3.19e+02    -  7.30e-01 2.21e-01h  1
  72r-5.5593634e+00 3.34e-01 1.00e+03  -0.5 0.00e+00    -  0.00e+00 1.80e-07R  2
  73r-5.5663705e+00 3.33e-01 1.00e+03  -0.5 8.06e+03    -  3.80e-07 3.93e-06f  1
  74 -5.5657533e+00 2.98e-01 1.75e+05  -6.0 4.32e+00    -  2.15e-01 1.06e-01h  1
  75 -5.5636849e+00 1.72e-01 1.13e+06  -6.0 3.91e+00    -  1.06e-01 4.21e-01h  1
  76 -5.5615204e+00 2.47e-04 4.66e+01  -6.0 2.40e+00    -  7.89e-01 1.00e+00h  1
  77 -5.5660494e+00 1.93e-03 2.44e+01  -6.0 2.36e+00    -  7.18e-01 9.50e-01h  1
  78 -5.5713610e+00 5.45e-03 1.83e+01  -6.0 1.50e+01    -  2.28e-01 1.37e-01f  1
  79 -5.5787776e+00 9.01e-03 1.79e+01  -6.0 1.82e+01    -  2.34e-01 1.12e-01f  1
iter    objective    inf_pr   inf_du lg(mu)  ||d||  lg(rg) alpha_du alpha_pr  ls
  80 -5.5803921e+00 5.96e-03 8.09e+02  -6.0 6.14e+00    -  8.73e-01 3.37e-01f  1
  81 -5.5920098e+00 1.34e-02 5.84e+02  -6.0 3.29e+01    -  7.59e-01 5.54e-01h  1
  82 -5.5970390e+00 2.20e-02 1.52e+03  -6.0 7.79e+01    -  6.75e-01 2.19e-01h  1
  83 -5.6105973e+00 1.97e-01 1.62e+03  -6.0 1.33e+02    -  9.28e-01 5.16e-01h  1
  84 -5.6210496e+00 1.38e+00 4.08e+02  -6.0 4.06e+02    -  4.13e-01 6.25e-01h  1
  85 -5.6301739e+00 8.30e-01 1.58e+03  -6.0 3.48e+02    -  5.73e-01 4.40e-01h  1
  86 -5.6381446e+00 1.24e+00 1.40e+03  -6.0 4.61e+02    -  3.57e-01 3.39e-01h  1
  87 -5.6613980e+00 2.79e+00 2.63e+03  -6.0 4.23e+02    -  9.08e-01 1.00e+00h  1
  88 -5.6686898e+00 3.91e+00 1.59e+04  -6.0 1.58e+03    -  4.64e-01 2.57e-01h  1
  89 -5.6870126e+00 1.39e+01 2.03e+04  -6.0 1.24e+03    -  8.13e-01 6.49e-01h  1
iter    objective    inf_pr   inf_du lg(mu)  ||d||  lg(rg) alpha_du alpha_pr  ls
  90 -5.6903781e+00 1.24e+01 1.10e+05  -6.0 9.56e+02    -  5.87e-01 1.13e-01h  1
  91 -5.7175695e+00 4.57e+00 1.81e+04  -6.0 5.47e+02    -  9.85e-01 9.12e-01h  1
  92 -5.7319955e+00 8.87e+00 3.27e+05  -6.0 1.51e+03    -  5.74e-04 3.87e-01h  1
  93 -5.7449532e+00 1.40e+01 6.45e+05  -6.0 2.37e+03    -  7.75e-02 2.80e-01h  1
  94r-5.7449532e+00 1.40e+01 1.00e+03   0.9 0.00e+00    -  0.00e+00 1.21e-07R  2
  95r-5.7507790e+00 1.39e+01 1.00e+03   0.9 4.28e+04    -  1.32e-06 2.69e-07f  1
  96 -5.7507163e+00 1.38e+01 2.68e+03  -6.0 6.53e+01    -  2.96e-06 7.91e-03h  1
  97 -5.7505235e+00 1.35e+01 2.61e+03  -6.0 3.20e+01    -  1.32e-02 2.50e-02h  1
  98 -5.7497873e+00 1.22e+01 2.36e+03  -6.0 7.37e+00    -  4.38e-02 9.63e-02h  1
  99 -5.7487956e+00 1.04e+01 2.02e+03  -6.0 6.91e+00    -  2.72e-01 1.44e-01h  1
iter    objective    inf_pr   inf_du lg(mu)  ||d||  lg(rg) alpha_du alpha_pr  ls
 100 -5.7473673e+00 7.87e+00 1.52e+03  -6.0 6.31e+00    -  3.53e-01 2.46e-01h  1
 101 -5.7446050e+00 2.88e+00 5.58e+02  -6.0 4.91e+00    -  5.50e-01 6.34e-01h  1
 102 -5.7446965e+00 2.43e+00 4.70e+02  -6.0 1.95e+00    -  4.17e-01 1.58e-01h  1
 103 -5.7449641e+00 1.75e-01 4.76e+01  -6.0 1.13e+00    -  2.96e-01 9.28e-01h  1
 104 -5.7454473e+00 1.05e-01 2.58e+01  -6.0 1.23e+00    -  8.65e-01 4.00e-01h  1
 105 -5.7489852e+00 8.95e-03 2.02e+01  -6.0 8.98e+00    -  9.20e-01 1.00e+00h  1
 106 -5.7538513e+00 1.83e-01 8.88e+00  -6.0 7.24e+01    -  8.55e-01 1.00e+00h  1
 107 -5.7593082e+00 4.90e-01 4.13e+00  -6.0 1.56e+02    -  9.13e-01 7.61e-01h  1
 108 -5.7602675e+00 1.61e+00 9.42e+00  -6.0 3.22e+02    -  6.06e-01 1.00e+00h  1
 109 -5.7588125e+00 1.20e-01 2.12e-01  -6.0 8.50e+01    -  9.94e-01 1.00e+00h  1
iter    objective    inf_pr   inf_du lg(mu)  ||d||  lg(rg) alpha_du alpha_pr  ls
 110 -5.7585855e+00 1.14e-02 1.48e+00  -6.0 5.47e+02    -  9.86e-01 1.00e+00H  1
 111 -5.7585720e+00 6.28e-04 1.45e-02  -6.0 4.37e+01    -  1.00e+00 1.00e+00H  1
 112 -5.7585731e+00 7.81e-05 3.13e-03  -6.0 1.38e+00    -  1.00e+00 1.00e+00h  1
 113 -5.7585731e+00 1.05e-09 8.06e-08  -6.0 4.99e-03    -  1.00e+00 1.00e+00h  1
 114 -5.7586976e+00 3.10e+00 6.76e+01  -7.5 5.70e+02    -  5.36e-01 7.69e-01h  1
 115 -5.7586891e+00 7.91e-01 6.21e+01  -7.5 1.45e+02    -  4.50e-01 8.23e-01h  1
 116 -5.7586842e+00 3.52e-02 4.07e-02  -7.5 4.53e+01    -  1.00e+00 1.00e+00h  1
 117 -5.7586838e+00 2.21e-04 9.89e-05  -7.5 3.61e+00    -  1.00e+00 1.00e+00h  1
 118 -5.7586838e+00 2.80e-10 4.51e-11  -7.5 8.26e-04    -  1.00e+00 1.00e+00h  1
 119 -5.7586853e+00 4.94e-03 9.01e-01  -9.0 2.09e+01    -  9.25e-01 8.27e-01h  1
iter    objective    inf_pr   inf_du lg(mu)  ||d||  lg(rg) alpha_du alpha_pr  ls
 120 -5.7586856e+00 2.24e-04 3.65e-04  -9.0 3.66e+00    -  1.00e+00 1.00e+00h  1
 121 -5.7586856e+00 2.98e-10 3.64e-09  -9.0 3.46e-03    -  1.00e+00 1.00e+00h  1

Number of Iterations....: 121

                                   (scaled)                 (unscaled)
Objective...............:  -4.4989731200875500e+00   -5.7586855937120642e+00
Dual infeasibility......:   3.6368517799797051e-09    4.6551702783740228e-09
Constraint violation....:   2.9800506582810388e-10    2.9800506582810388e-10
Complementarity.........:   1.0966574326957954e-09    1.4037215138506181e-09
Overall NLP error.......:   3.6368517799797051e-09    4.6551702783740228e-09


Number of objective function evaluations             = 225
Number of objective gradient evaluations             = 122
Number of equality constraint evaluations            = 225
Number of inequality constraint evaluations          = 225
Number of equality constraint Jacobian evaluations   = 125
Number of inequality constraint Jacobian evaluations = 125
Number of Lagrangian Hessian evaluations             = 121
Total CPU secs in IPOPT (w/o function evaluations)   =    227.610
Total CPU secs in NLP function evaluations           =      5.225

EXIT: Optimal Solution Found.
